(set-info :source |printed by MathSAT|)
(declare-fun call__main_.call_controleur.flby () Bool)
(declare-fun call__main_.call_controleur.diff () Int)
(declare-fun _OK_ () Bool)
(declare-fun call__main_._H0_ () Bool)
(declare-fun call__main_.nB0 () Int)
(declare-fun call__main_.avance0 () Bool)
(declare-fun call_Sofar.Sofar () Bool)
(declare-fun nB1 () Int)
(declare-fun call__main_.diff1 () Int)
(declare-fun call__main_.retard0 () Bool)
(declare-fun avance1 () Bool)
(declare-fun call__main_.call_hypothese.flby2 () Int)
(declare-fun pOK () Bool)
(declare-fun call__main_.retard1 () Bool)
(declare-fun flby () Bool)
(declare-fun call__main_.call_controleur2.flby () Bool)
(declare-fun call__main_.call_controleur.avance () Bool)
(declare-fun call__main_.call_controleur2.flby2 () Bool)
(declare-fun flby2 () Bool)
(declare-fun nB0 () Int)
(declare-fun call__main_.call_hypothese.ok () Bool)
(declare-fun call__main_.call_controleur2.avance () Bool)
(declare-fun nS () Int)
(declare-fun ast () Bool)
(declare-fun call__main_.call_hypothese.flby () Bool)
(declare-fun call__main_.avance1 () Bool)
(declare-fun call__main_.nS () Int)
(declare-fun retard0 () Bool)
(declare-fun call__main_._H1_ () Bool)
(declare-fun call__main_.call_hypothese2.ok () Bool)
(declare-fun diff0 () Int)
(declare-fun call__main_.ast () Bool)
(declare-fun call__main_.flby () Int)
(declare-fun call_Sofar.flby () Bool)
(declare-fun call__main_.call_hypothese.c () Int)
(declare-fun diff1 () Int)
(declare-fun avance0 () Bool)
(declare-fun call__main_.nB1 () Int)
(declare-fun call__main_.call_controleur.retard () Bool)
(declare-fun call__main_.call_controleur2.retard () Bool)
(declare-fun call__main_.call_hypothese2.flby () Bool)
(declare-fun call__main_.flby2 () Int)
(declare-fun retard1 () Bool)
(declare-fun call__main_.call_controleur.flby2 () Bool)
(declare-fun call__main_.flby3 () Int)
(declare-fun call__main_.call_hypothese2.c () Int)
(declare-fun call__main_.diff0 () Int)
(declare-fun call__main_.call_hypothese2.flby2 () Int)
(declare-fun call__main_.call_controleur2.diff () Int)
(define-fun .def_678 () Bool (= call_Sofar.flby call_Sofar.Sofar))
(define-fun .def_676 () Bool (= call__main_.call_controleur2.flby2 call__main_.call_controleur2.retard))
(define-fun .def_674 () Bool (= call__main_.call_controleur2.flby call__main_.call_controleur2.avance))
(define-fun .def_669 () Int (* (- 1) call__main_.call_controleur2.diff))
(define-fun .def_657 () Int (* (- 1) call__main_.nS))
(define-fun .def_670 () Int (+ .def_657 .def_669))
(define-fun .def_671 () Int (+ call__main_.nB1 .def_670))
(define-fun .def_672 () Bool (= .def_671 0))
(define-fun .def_664 () Bool (= call__main_.call_controleur.flby2 call__main_.call_controleur.retard))
(define-fun .def_662 () Bool (= call__main_.call_controleur.flby call__main_.call_controleur.avance))
(define-fun .def_656 () Int (* (- 1) call__main_.call_controleur.diff))
(define-fun .def_658 () Int (+ .def_657 .def_656))
(define-fun .def_659 () Int (+ call__main_.nB0 .def_658))
(define-fun .def_660 () Bool (= .def_659 0))
(define-fun .def_651 () Bool (= call__main_.call_hypothese2.flby2 call__main_.call_hypothese2.c))
(define-fun .def_648 () Bool (= call__main_.call_hypothese2.flby call__main_.call_hypothese2.ok))
(define-fun .def_646 () Bool (= call__main_.call_hypothese.flby2 call__main_.call_hypothese.c))
(define-fun .def_643 () Bool (= call__main_.call_hypothese.flby call__main_.call_hypothese.ok))
(define-fun .def_641 () Bool (= call__main_._H1_ call__main_.call_hypothese2.ok))
(define-fun .def_638 () Bool (= call__main_._H0_ call__main_.call_hypothese.ok))
(define-fun .def_635 () Bool (= call__main_.retard1 call__main_.call_controleur2.retard))
(define-fun .def_632 () Bool (= call__main_.retard0 call__main_.call_controleur.retard))
(define-fun .def_629 () Bool (= call__main_.avance1 call__main_.call_controleur2.avance))
(define-fun .def_626 () Bool (= call__main_.avance0 call__main_.call_controleur.avance))
(define-fun .def_623 () Bool (= call__main_.diff1 call__main_.call_controleur2.diff))
(define-fun .def_620 () Bool (= call__main_.diff0 call__main_.call_controleur.diff))
(define-fun .def_617 () Bool (= call__main_.flby3 call__main_.nS))
(define-fun .def_615 () Bool (= call__main_.flby2 call__main_.nB1))
(define-fun .def_613 () Bool (= call__main_.flby call__main_.nB0))
(define-fun .def_610 () Bool (and call__main_._H0_ call__main_._H1_))
(define-fun .def_611 () Bool (= call__main_.ast .def_610))
(define-fun .def_606 () Bool (= ast call__main_.ast))
(define-fun .def_603 () Bool (= flby pOK))
(define-fun .def_600 () Bool (= retard1 call__main_.retard1))
(define-fun .def_596 () Bool (= retard0 call__main_.retard0))
(define-fun .def_592 () Bool (= avance1 call__main_.avance1))
(define-fun .def_588 () Bool (= avance0 call__main_.avance0))
(define-fun .def_584 () Bool (= diff1 call__main_.diff1))
(define-fun .def_580 () Bool (= diff0 call__main_.diff0))
(define-fun .def_577 () Bool (= nS call__main_.nS))
(define-fun .def_574 () Bool (= nB1 call__main_.nB1))
(define-fun .def_571 () Bool (= nB0 call__main_.nB0))
(define-fun .def_567 () Bool (not call_Sofar.Sofar))
(define-fun .def_568 () Bool (or flby2 .def_567))
(define-fun .def_569 () Bool (= _OK_ .def_568))
(define-fun .def_572 () Bool (and .def_569 .def_571))
(define-fun .def_575 () Bool (and .def_572 .def_574))
(define-fun .def_578 () Bool (and .def_575 .def_577))
(define-fun .def_581 () Bool (and .def_578 .def_580))
(define-fun .def_585 () Bool (and .def_581 .def_584))
(define-fun .def_589 () Bool (and .def_585 .def_588))
(define-fun .def_593 () Bool (and .def_589 .def_592))
(define-fun .def_597 () Bool (and .def_593 .def_596))
(define-fun .def_601 () Bool (and .def_597 .def_600))
(define-fun .def_604 () Bool (and .def_601 .def_603))
(define-fun .def_607 () Bool (and .def_604 .def_606))
(define-fun .def_612 () Bool (and .def_607 .def_611))
(define-fun .def_614 () Bool (and .def_612 .def_613))
(define-fun .def_616 () Bool (and .def_614 .def_615))
(define-fun .def_618 () Bool (and .def_616 .def_617))
(define-fun .def_621 () Bool (and .def_618 .def_620))
(define-fun .def_624 () Bool (and .def_621 .def_623))
(define-fun .def_627 () Bool (and .def_624 .def_626))
(define-fun .def_630 () Bool (and .def_627 .def_629))
(define-fun .def_633 () Bool (and .def_630 .def_632))
(define-fun .def_636 () Bool (and .def_633 .def_635))
(define-fun .def_639 () Bool (and .def_636 .def_638))
(define-fun .def_642 () Bool (and .def_639 .def_641))
(define-fun .def_644 () Bool (and .def_642 .def_643))
(define-fun .def_647 () Bool (and .def_644 .def_646))
(define-fun .def_649 () Bool (and .def_647 .def_648))
(define-fun .def_652 () Bool (and .def_649 .def_651))
(define-fun .def_661 () Bool (and .def_652 .def_660))
(define-fun .def_663 () Bool (and .def_661 .def_662))
(define-fun .def_665 () Bool (and .def_663 .def_664))
(define-fun .def_673 () Bool (and .def_665 .def_672))
(define-fun .def_675 () Bool (and .def_673 .def_674))
(define-fun .def_677 () Bool (and .def_675 .def_676))
(define-fun .def_679 () Bool (and .def_677 .def_678))
(define-fun .def_562 () Bool (not call__main_.call_controleur2.flby2))
(define-fun .def_559 () Bool (not call__main_.call_controleur2.flby))
(define-fun .def_556 () Bool (not call__main_.call_controleur.flby2))
(define-fun .def_553 () Bool (not call__main_.call_controleur.flby))
(define-fun .def_550 () Bool (= call__main_.call_hypothese2.flby2 0))
(define-fun .def_545 () Bool (= call__main_.call_hypothese.flby2 0))
(define-fun .def_540 () Bool (= call__main_.flby3 0))
(define-fun .def_537 () Bool (= call__main_.flby2 0))
(define-fun .def_534 () Bool (= call__main_.flby 0))
(define-fun .def_532 () Bool (and flby2 flby))
(define-fun .def_535 () Bool (and .def_532 .def_534))
(define-fun .def_538 () Bool (and .def_535 .def_537))
(define-fun .def_541 () Bool (and .def_538 .def_540))
(define-fun .def_543 () Bool (and .def_541 call__main_.call_hypothese.flby))
(define-fun .def_546 () Bool (and .def_543 .def_545))
(define-fun .def_548 () Bool (and .def_546 call__main_.call_hypothese2.flby))
(define-fun .def_551 () Bool (and .def_548 .def_550))
(define-fun .def_554 () Bool (and .def_551 .def_553))
(define-fun .def_557 () Bool (and .def_554 .def_556))
(define-fun .def_560 () Bool (and .def_557 .def_559))
(define-fun .def_563 () Bool (and .def_560 .def_562))
(define-fun .def_525 () Bool (<= 32767 diff0))
(define-fun .def_526 () Bool (not .def_525))
(define-fun .def_521 () Bool (<= 1 nS))
(define-fun .def_522 () Bool (not .def_521))
(define-fun .def_517 () Bool (<= 1 nB1))
(define-fun .def_518 () Bool (not .def_517))
(define-fun .def_512 () Bool (<= 1 nB0))
(define-fun .def_513 () Bool (not .def_512))
(define-fun .def_515 () Bool (and .def_513 ast))
(define-fun .def_519 () Bool (and .def_515 .def_518))
(define-fun .def_523 () Bool (and .def_519 .def_522))
(define-fun .def_527 () Bool (and .def_523 .def_526))
(define-fun .def_529 () Bool (= .def_527 call_Sofar.flby))
(define-fun .def_564 () Bool (and .def_529 .def_563))
(define-fun .def_680 () Bool (and .def_564 .def_679))
(assert .def_680)
